
c:\tomcat8.5\bin>cd C:\home\sumitomo\sol-server\system\Upfiles\k041808\prj\Casex-1 

C:\home\sumitomo\sol-server\system\Upfiles\k041808\prj\Casex-1>cplex0<Casex-1.cmd 

Welcome to IBM(R) ILOG(R) CPLEX(R) Interactive Optimizer 12.6.1.0
  with Simplex, Mixed Integer & Barrier Optimizers
5725-A06 5725-A29 5724-Y48 5724-Y49 5724-Y54 5724-Y55 5655-Y21
Copyright IBM Corp. 1988, 2014.  All Rights Reserved.

Type 'help' for a list of available commands.
Type 'help' followed by a command name for more
information on commands.

CPLEX> Problem 'Casex-1.lp' read.
Read time = 0.08 sec. (4.06 ticks)
CPLEX> Logfile 'cplex.log' closed.
Logfile 'Casex-1.log' open.
CPLEX> New value for time limit in seconds: 10800
CPLEX> New value for default parallel thread count: 1
CPLEX> Tried aggregator 3 times.
MIP Presolve eliminated 18314 rows and 1298 columns.
MIP Presolve modified 163 coefficients.
Aggregator did 31 substitutions.
Reduced MIP has 7881 rows, 17568 columns, and 135494 nonzeros.
Reduced MIP has 17370 binaries, 198 generals, 0 SOSs, and 0 indicators.
Presolve time = 0.13 sec. (137.68 ticks)
Probing time = 0.02 sec. (7.47 ticks)
Tried aggregator 1 time.
Reduced MIP has 7881 rows, 17568 columns, and 135494 nonzeros.
Reduced MIP has 17370 binaries, 198 generals, 0 SOSs, and 0 indicators.
Presolve time = 0.06 sec. (61.19 ticks)
Probing time = 0.00 sec. (6.65 ticks)
Clique table members: 37423.
MIP emphasis: balance optimality and feasibility.
MIP search method: dynamic search.
Parallel mode: none, using 1 thread.
Root relaxation solution time = 1.81 sec. (2495.39 ticks)

        Nodes                                         Cuts/
   Node  Left     Objective  IInf  Best Integer    Best Bound    ItCnt     Gap

      0     0       17.0000   737                     17.0000     7383         
      0     0       23.8889   298                    Cuts: 13     8796         
      0     0       31.2000   325                    Cuts: 66    10951         
      0     0       31.2000   452                    Cuts: 15    12251         
*     0+    0                           99.0000       31.2000            68.48%
      0     2       31.2000   158       99.0000       31.2000    12251   68.48%
Elapsed time = 12.45 sec. (16488.68 ticks, tree = 0.00 MB, solutions = 1)
      2     4       31.2000   352       99.0000       31.2000    14449   68.48%
      3     5       31.2000   210       99.0000       31.2000    16472   68.48%
      4     6       31.2000   298       99.0000       31.2000    18288   68.48%
      5     7       31.2000   308       99.0000       31.2000    21179   68.48%
      7     9       31.2000   282       99.0000       31.2000    23107   68.48%
      9    11       31.2000   288       99.0000       31.2000    24612   68.48%
     10    12       31.2000   306       99.0000       31.2000    24994   68.48%
     13    15       31.2000   343       99.0000       31.2000    28203   68.48%
     15    17       31.2000   296       99.0000       31.2000    30055   68.48%
     22    24       31.2000   321       99.0000       31.2000    35648   68.48%
Elapsed time = 16.56 sec. (23014.69 ticks, tree = 0.34 MB, solutions = 1)
     31    33       31.2000   229       99.0000       31.2000    45713   68.48%
     39    41       31.2000   247       99.0000       31.2000    56251   68.48%
     48    50       31.2000   232       99.0000       31.2000    62161   68.48%
     54    56       31.2000   249       99.0000       31.2000    69279   68.48%
     70    72       31.4000   220       99.0000       31.2000    84052   68.48%
     80    82       31.2000   212       99.0000       31.2000    94415   68.48%
     93    95       31.2000   214       99.0000       31.2000   106834   68.48%
    103   105       31.3667   260       99.0000       31.2000   124230   68.48%
    120   122       31.2000   247       99.0000       31.2000   136313   68.48%
    139   141       31.8889   202       99.0000       31.2000   152472   68.48%
Elapsed time = 24.77 sec. (33337.69 ticks, tree = 1.60 MB, solutions = 1)
    150   152       33.0583   251       99.0000       31.2000   167558   68.48%
    160   162       31.8889   174       99.0000       31.2000   174371   68.48%
    174   176       31.8889   167       99.0000       31.2000   185772   68.48%
    186   188       37.8033   228       99.0000       31.2000   200883   68.48%
    205   207       33.2250   215       99.0000       31.2000   214577   68.48%
    224   226       33.3250   212       99.0000       31.2000   229076   68.48%
    239   241       38.5617   248       99.0000       31.2000   242277   68.48%
    251   253       34.0912   280       99.0000       31.2000   251796   68.48%
    263   265       37.0685   273       99.0000       31.2000   260722   68.48%
    278   280       43.4500   161       99.0000       31.2000   273266   68.48%
Elapsed time = 33.47 sec. (43847.33 ticks, tree = 3.82 MB, solutions = 1)
    288   288       44.4500   168       99.0000       31.2000   283272   68.48%
    300   300       44.6167   133       99.0000       31.2000   295146   68.48%
    310   310       44.6167   140       99.0000       31.2000   307455   68.48%
    328   328       45.7778   131       99.0000       31.2000   318431   68.48%
    349   349       50.0317    88       99.0000       31.2000   333264   68.48%
    360   360       50.1667    69       99.0000       31.2000   351413   68.48%
    410   406       52.8810    99       99.0000       31.2000   355968   68.48%
    473   465    infeasible             99.0000       31.2000   360086   68.48%
*   474+  464                           98.0000       31.2000            68.16%
*   474+  460                           57.0000       31.2000            45.26%
*   474+  446                           56.0000       31.2000            44.29%
*   474+  437                           55.0000       31.2000            43.27%
    474   439       31.2000   369       55.0000       31.2000   361960   43.27%
    475   440       45.0000    28       55.0000       45.0000   382475   18.18%
Elapsed time = 62.56 sec. (83886.12 ticks, tree = 5.03 MB, solutions = 5)
    477   442       45.0000   228       55.0000       45.0000   384490   18.18%
    479   442       45.0000   330       55.0000       45.0000   387331   18.18%
    481   444       45.0000   222       55.0000       45.0000   387999   18.18%
    484   445       45.0000   195       55.0000       45.0000   391245   18.18%
    486   447       45.0000   155       55.0000       45.0000   392800   18.18%
    488   449       45.0000   176       55.0000       45.0000   395712   18.18%
    490   450       45.0000   171       55.0000       45.0000   401259   18.18%
    491   451       45.5000   340       55.0000       45.0000   404897   18.18%
    493   452       46.0000   380       55.0000       45.0000   412360   18.18%
    494   453       46.0000   366       55.0000       45.0000   418559   18.18%
Elapsed time = 74.72 sec. (103233.04 ticks, tree = 5.27 MB, solutions = 5)
    496   454       46.0000   422       55.0000       45.0000   422151   18.18%
    497   454       46.0000   379       55.0000       45.0000   424933   18.18%
    499   455       46.0000   386       55.0000       45.0000   425745   18.18%
    501   457       46.0000   404       55.0000       45.0000   426157   18.18%
    503   458       46.0000   511       55.0000       45.0000   428784   18.18%
    504   458       46.0000   725       55.0000       45.0000   429729   18.18%
    505   459       46.0000   536       55.0000       45.0000   434212   18.18%
    507   461       46.0000   571       55.0000       45.0000   434495   18.18%
    509   463       46.0000   574       55.0000       45.0000   436062   18.18%
    511   464       46.0000   564       55.0000       45.0000   437683   18.18%
Elapsed time = 87.50 sec. (122811.36 ticks, tree = 6.60 MB, solutions = 5)
    514   467       46.0000   551       55.0000       45.0000   439138   18.18%
    517   468       46.0000   536       55.0000       45.0000   440915   18.18%
    520   469       46.0000   542       55.0000       45.0000   442169   18.18%
    523   472       46.0000   551       55.0000       45.0000   443712   18.18%
    525   473       46.0000   523       55.0000       45.0000   445094   18.18%
    528   475       46.0000   509       55.0000       45.0000   445896   18.18%
    531   477       46.0000   510       55.0000       45.0000   446801   18.18%
    534   480       46.0000   522       55.0000       45.0000   447185   18.18%
    537   482       46.0000   503       55.0000       45.0000   448619   18.18%
    540   483       46.0000   426       55.0000       45.0000   451113   18.18%
Elapsed time = 95.42 sec. (134915.13 ticks, tree = 9.33 MB, solutions = 5)
    543   485       46.0000   345       55.0000       45.0000   453011   18.18%
    545   485       46.0000   342       55.0000       45.0000   454033   18.18%
    549   486       46.0000   328       55.0000       45.0000   456834   18.18%
    554   490       46.0000   269       55.0000       45.0000   459456   18.18%
    559   485    infeasible             55.0000       45.0000   461031   18.18%
    565   490       47.1667   192       55.0000       45.0000   464590   18.18%
    573   494       48.0000   111       55.0000       45.0000   469155   18.18%
    579   499       48.1667    77       55.0000       45.0000   477865   18.18%
    587   504       48.0000    54       55.0000       45.0000   488957   18.18%
    593   508       48.0000    49       55.0000       45.0000   499818   18.18%
Elapsed time = 103.50 sec. (145931.58 ticks, tree = 13.86 MB, solutions = 5)
    597   510       48.1667    77       55.0000       45.0000   505873   18.18%
    605   514       49.0000    51       55.0000       45.0000   514244   18.18%
    612   518       49.1667    94       55.0000       45.0000   522661   18.18%
    620   521       50.2500    43       55.0000       45.0000   527704   18.18%
    628   525       51.0000    41       55.0000       45.0000   537829   18.18%
*   642   404      integral     0       52.0000       45.0000   541080   13.46%
*   642   320      integral     0       52.0000       45.0000   541080   13.46%
    647   319       47.0000    77       52.0000       45.0000   551263   13.46%
    651   321       47.0000    69       52.0000       45.0000   558206   13.46%
    658   326       47.0000    57       52.0000       45.0000   562618   13.46%
    664   330       47.0000    45       52.0000       45.0000   572350   13.46%
Elapsed time = 111.09 sec. (156258.70 ticks, tree = 16.93 MB, solutions = 6)
    668   331       47.2500   142       52.0000       45.0000   585038   13.46%
    673   333       49.0000    88       52.0000       45.0000   591690   13.46%
*   675+  230                           49.0000       45.0000             8.16%
    680   231       45.0000   151       49.0000       45.0000   596625    8.16%
    685   231       46.0000   118       49.0000       45.0000   600958    8.16%
    690   235       46.0000   141       49.0000       45.0000   608274    8.16%
    696   239       46.0000    98       49.0000       45.0000   611813    8.16%
    702   242       46.0000   232       49.0000       45.0000   624255    8.16%
    707   246       46.0000   214       49.0000       45.0000   628021    8.16%
    713   250       46.0000   139       49.0000       45.0000   632263    8.16%
    741   258       48.0000    41       49.0000       45.0000   660835    8.16%
Elapsed time = 122.50 sec. (170925.57 ticks, tree = 17.95 MB, solutions = 7)
*   779   186      integral     0       48.0000       45.0000   684346    6.25%
*   779   175      integral     0       48.0000       45.0000   684346    6.25%
    799   186       46.1667    68       48.0000       45.0000   719090    6.25%
    823   200       47.0000    48       48.0000       45.0000   746186    6.25%
    850   215       47.0000    57       48.0000       45.0000   783601    6.25%
    871   226       46.0000   113       48.0000       45.0000   813695    6.25%
    894   249       46.0000    76       48.0000       45.0000   843929    6.25%
    917   267       47.0000    69       48.0000       45.0000   872850    6.25%
    952   302       47.0000    58       48.0000       45.0000   895799    6.25%
    995   339       47.0000    27       48.0000       45.0000   921068    6.25%
   1032   356       46.0000    84       48.0000       45.0000   947881    6.25%
Elapsed time = 150.25 sec. (209397.57 ticks, tree = 33.49 MB, solutions = 8)
   1048   369       47.0000    38       48.0000       45.0000   974161    6.25%
   1083   392       47.0000    70       48.0000       45.0000  1004288    6.25%
   1120   423       47.0000    69       48.0000       45.0000  1017187    6.25%
   1154   444       46.0000   126       48.0000       45.0000  1040956    6.25%
   1179   467       46.0000    89       48.0000       45.0000  1063987    6.25%
*  1186    22      integral     0       46.0000       45.0000  1074307    2.17%
   1197    16    infeasible             46.0000       45.0000  1087774    2.17%
   1224    13       45.0000   142       46.0000       45.0000  1112510    2.17%
   1254    19    infeasible             46.0000       45.0000  1143683    2.17%
   1290    16       45.0000   145       46.0000       45.0000  1167693    2.17%
   1330    13       45.0000   149       46.0000       45.0000  1191617    2.17%
Elapsed time = 178.47 sec. (248220.29 ticks, tree = 0.72 MB, solutions = 9)
   1374     8       45.0000   145       46.0000       45.0000  1212522    2.17%
   1410     6       45.0000   223       46.0000       45.0000  1231414    2.17%
   1451     4       45.0000   224       46.0000       45.0000  1249219    2.17%

Clique cuts applied:  83
Zero-half cuts applied:  19
Gomory fractional cuts applied:  45

Root node processing (before b&c):
  Real time             =   12.27 sec. (16253.88 ticks)
Sequential b&c:
  Real time             =  176.47 sec. (246984.10 ticks)
                          ------------
Total (root+branch&cut) =  188.73 sec. (263237.98 ticks)

Solution pool: 9 solutions saved.

MIP - Integer optimal solution:  Objective = 4.6000000000e+001
Solution time =  188.73 sec.  Iterations = 1267283  Nodes = 1487
Deterministic time = 263238.03 ticks  (1394.76 ticks/sec)

CPLEX> Incumbent solution written to file 'Casex-1.sol'.
CPLEX> Command 'y' does not exist.  Type 'help' for a list of commands.
CPLEX> 
